6251 4201 499 498 497 496 492 491 488 487 486 485 482 481 477 475 474 471 470 468 467 466 465 464 463 461 453 452 451 450 448 447 446 444 442 441 438 437 436 435 433 429 428 427 426 425 424 422 420 419 415 414 411 410 409 403 401 400 396 395 393 392 391 389 388 387 386 377 373 370 368 366 365 364 362 360 358 355 354 346 343 330 329 328 327 326 324 322 318 316 312 311 310 308 307 304 300 298 297 293 284 282 280 279 277 276 274 273 272 271 269 268 265 263 260 249 248 246 243 238 236 233 231 229 227 225 223 222 220 218 216 210 206 203 200 196 195 194 185 184 182 181 176 174 171 170 168 159 158 155 145 143 142 141 137 136 135 134 128 124 120 118 117 116 115 109 106 98 97 96 95 92 89 84 78 76 74 73 71 70 67 66 64 59 56 54 51 50 46 44 43 42 34 33 30 29 25 23 21 20 16 12 9 7 6 4 3 